p wcnf 132 198 199 
1 -72 -104 0 
1 14 -5 0 
1 -1 -8 0 
1 -53 -127 0 
1 80 -26 0 
1 103 -5 0 
1 109 -90 0 
1 50 80 0 
1 -102 -108 0 
1 74 -3 0 
1 38 -130 0 
1 -132 -19 0 
1 6 22 0 
1 -12 -48 0 
1 -8 94 0 
1 36 77 0 
1 77 75 0 
1 -60 -63 0 
1 4 72 0 
1 117 -90 0 
1 -18 43 0 
1 -100 -121 0 
1 57 -66 0 
1 98 -96 0 
1 59 97 0 
1 -76 11 0 
1 -23 47 0 
1 -110 -61 0 
1 92 129 0 
1 -115 -32 0 
1 79 60 0 
1 -25 33 0 
1 -51 124 0 
1 -28 118 0 
1 62 -76 0 
1 12 50 0 
1 116 -37 0 
1 66 33 0 
1 46 40 0 
1 -45 95 0 
1 -95 35 0 
1 -78 43 0 
1 79 20 0 
1 -27 58 0 
1 -14 112 0 
1 64 36 0 
1 71 -64 0 
1 97 -88 0 
1 -44 78 0 
1 -100 59 0 
1 -64 -85 0 
1 -86 -31 0 
1 -29 106 0 
1 72 -106 0 
1 -97 -84 0 
1 -79 115 0 
1 -81 102 0 
1 45 -85 0 
1 75 -4 0 
1 -90 -128 0 
1 -64 -24 0 
1 34 115 0 
1 41 21 0 
1 -23 120 0 
1 19 64 0 
1 104 -50 0 
1 60 -51 0 
1 93 -75 0 
1 36 -118 0 
1 -81 106 0 
1 122 -121 0 
1 -43 -13 0 
1 113 102 0 
1 103 -51 0 
1 -101 -110 0 
1 -34 45 0 
1 -27 -38 0 
1 -87 -26 0 
1 42 -89 0 
1 -71 -109 0 
1 -94 -124 0 
1 -60 -41 0 
1 -80 -39 0 
1 -85 41 0 
1 23 30 0 
1 26 100 0 
1 49 82 0 
1 -123 79 0 
1 -13 -58 0 
1 31 16 0 
1 57 -31 0 
1 -53 -112 0 
1 16 -74 0 
1 -25 -58 0 
1 -113 9 0 
1 14 -87 0 
1 26 17 0 
1 106 -93 0 
1 -107 -39 0 
1 6 58 0 
1 30 -130 0 
1 25 -50 0 
1 1 -15 0 
1 -71 70 0 
1 18 -118 0 
1 125 18 0 
1 66 -30 0 
1 -86 18 0 
1 54 101 0 
1 35 -114 0 
1 113 -35 0 
1 -90 -42 0 
1 72 -12 0 
1 -114 -2 0 
1 -57 -50 0 
1 -99 126 0 
1 -6 58 0 
1 55 -75 0 
1 -33 68 0 
1 -90 -54 0 
1 5 124 0 
1 115 -16 0 
1 -48 -60 0 
1 -66 -74 0 
1 2 4 0 
1 65 3 0 
1 6 -110 0 
1 -73 -1 0 
1 127 129 0 
1 -92 -109 0 
1 -107 15 0 
1 41 -58 0 
1 -33 94 0 
1 -13 -54 0 
1 -74 129 0 
1 70 -72 0 
1 35 25 0 
1 37 -46 0 
1 53 38 0 
1 -68 74 0 
1 -111 25 0 
1 49 -2 0 
1 -112 22 0 
1 48 12 0 
1 117 -37 0 
1 -9 61 0 
1 -32 25 0 
1 47 35 0 
1 -85 -3 0 
1 -35 -13 0 
1 94 -131 0 
1 -44 79 0 
1 -4 -117 0 
1 -38 -3 0 
1 111 82 0 
1 24 -88 0 
1 -18 97 0 
1 16 17 0 
1 13 82 0 
1 69 106 0 
1 -121 -85 0 
1 79 122 0 
1 -121 -62 0 
1 115 31 0 
1 -91 -70 0 
1 128 -81 0 
1 38 75 0 
1 -71 -36 0 
1 -41 -107 0 
1 -43 -65 0 
1 31 -70 0 
1 -95 8 0 
1 -96 61 0 
1 -119 -61 0 
1 -35 31 0 
1 -76 132 0 
1 11 23 0 
1 26 -63 0 
1 -7 -77 0 
1 -123 -118 0 
1 32 76 0 
1 47 -12 0 
1 -101 -54 0 
1 -130 106 0 
1 -42 -114 0 
1 120 -131 0 
1 -102 -95 0 
1 31 58 0 
1 14 -12 0 
1 -124 -53 0 
1 109 92 0 
1 100 -76 0 
1 -25 85 0 
1 73 -51 0 
1 -121 55 0 
1 -31 -109 0 
1 -44 -101 0 
1 -69 -101 0 
